c   #vars: 75   #clauses: 341   #literals: 950
c 
p cnf 75 341
-1 -2 0
-3 -4 0
-6 -7 0
-8 -9 0
-10 -11 0
17 18 35 36 0
35 36 61 62 0
-16 29 30 53 0
14 42 43 -57 0
-12 -13 0
12 13 41 -61 0
-15 -16 0
-17 -18 0
-19 -20 0
-21 -22 0
-23 -24 0
-25 -26 0
-27 -28 0
-29 -30 0
-31 -32 0
-33 -34 0
-35 -36 0
-37 -38 0
-39 -40 0
39 40 69 70 0
46 57 58 -59 0
-42 -43 0
-44 -45 0
6 7 51 -71 0
-47 -48 0
-49 -50 0
-25 52 55 56 0
-36 46 54 -57 0
47 48 55 56 0
3 4 47 48 0
42 43 65 66 0
25 26 37 38 0
15 16 -38 53 0
17 18 -47 75 0
-55 -56 0
-57 -58 0
21 22 59 60 0
-59 -60 0
-61 -62 0
-63 -64 0
-65 -66 0
-67 -68 0
-69 -70 0
-71 -72 0
-73 -74 0
5 49 50 -69 0
-1 -33 0
-2 -34 0
23 24 47 48 0
-21 52 55 56 0
-2 -51 0
-1 -59 0
-2 -60 0
46 -54 59 60 0
-1 -67 0
-2 -68 0
-3 -35 0
-4 -36 0
-4 29 30 53 0
-3 -44 0
-4 -45 0
-3 -47 0
-4 -48 0
-3 -53 0
15 16 49 50 0
-3 -54 0
-6 17 18 75 0
21 22 31 32 0
-3 -73 0
-4 -74 0
21 22 55 56 0
-5 -40 0
-5 -50 0
14 -42 69 70 0
3 4 -46 54 0
8 9 47 48 0
-5 -70 0
-6 -31 0
-7 -32 0
-6 -39 0
-7 -40 0
-4 46 54 -59 0
25 26 52 -55 0
-7 -51 0
-6 -71 0
-7 -72 0
5 -39 49 50 0
-7 -75 0
3 4 73 74 0
46 -57 59 60 0
-8 -42 0
-9 -43 0
14 -57 69 70 0
-8 -47 0
-9 -48 0
33 34 71 72 0
-8 -71 0
-9 -72 0
5 39 40 -49 0
-8 -73 0
-9 -74 0
-30 37 38 53 0
-16 37 38 53 0
-4 35 36 54 0
-4 37 38 53 0
-10 -39 0
-11 -40 0
21 22 37 38 0
-10 -44 0
-11 -45 0
12 13 63 64 0
-10 -49 0
-11 -50 0
3 4 -30 53 0
-10 -59 0
-11 -60 0
19 20 61 62 0
35 36 -46 54 0
33 34 61 62 0
-1 51 71 72 0
15 16 -30 53 0
8 9 73 74 0
-36 46 54 -59 0
49 50 73 74 0
21 22 29 30 0
46 -54 57 58 0
-13 -41 0
-12 -42 0
-13 -43 0
25 26 33 34 0
-12 -44 0
-13 -45 0
39 40 73 74 0
-12 -63 0
-13 -64 0
8 9 42 43 0
12 13 -19 41 0
-14 -43 0
6 7 39 40 0
19 20 41 -61 0
-14 -58 0
42 43 61 62 0
-12 19 20 41 0
-14 -70 0
17 18 57 58 0
-15 -35 0
-16 -36 0
5 39 40 -69 0
-15 -47 0
-16 -48 0
-15 -49 0
-16 -50 0
-15 -53 0
-12 41 61 62 0
-15 -59 0
-16 -60 0
10 11 39 40 0
-15 -73 0
-16 -74 0
27 28 67 68 0
-17 -29 0
-18 -30 0
23 24 27 28 0
-17 -35 0
-18 -36 0
25 26 67 68 0
-17 -57 0
-18 -58 0
19 20 27 28 0
-17 -61 0
-18 -62 0
-17 -63 0
-18 -64 0
21 22 69 70 0
5 -49 69 70 0
-18 -75 0
6 7 71 72 0
-19 -27 0
-20 -28 0
39 40 55 56 0
-6 47 48 75 0
-20 -41 0
-19 -61 0
-20 -62 0
10 11 49 50 0
-19 -65 0
-20 -66 0
-21 -29 0
-22 -30 0
25 26 44 45 0
-21 -31 0
-22 -32 0
44 45 63 64 0
-21 -37 0
-22 -38 0
14 -42 57 58 0
-4 46 54 -57 0
-22 -52 0
23 24 57 58 0
-21 -55 0
-22 -56 0
21 22 63 64 0
-21 -59 0
-22 -60 0
8 9 71 72 0
-21 -63 0
-22 -64 0
3 4 44 45 0
-21 -69 0
-22 -70 0
1 2 33 34 0
-23 -27 0
-24 -28 0
3 4 35 36 0
-23 -47 0
-24 -48 0
23 24 63 64 0
-23 -57 0
-24 -58 0
12 13 42 43 0
-23 -63 0
-24 -64 0
19 20 65 66 0
-25 -33 0
-26 -34 0
-25 -37 0
-26 -38 0
6 7 31 32 0
-25 -44 0
-26 -45 0
29 30 73 74 0
-26 -52 0
31 32 65 66 0
-25 -67 0
-26 -68 0
17 18 29 30 0
-27 -59 0
-28 -60 0
29 30 57 58 0
-27 -63 0
-28 -64 0
31 32 69 70 0
-27 -67 0
-28 -68 0
-27 -73 0
-28 -74 0
29 30 -38 53 0
3 4 -38 53 0
31 32 55 56 0
-29 -53 0
1 2 67 68 0
-29 -57 0
-30 -58 0
15 16 47 48 0
-29 -73 0
-30 -74 0
12 13 44 45 0
-31 -55 0
-32 -56 0
21 22 52 -55 0
-31 -65 0
-32 -66 0
10 11 44 45 0
-31 -69 0
-32 -70 0
27 28 73 74 0
-33 -61 0
-34 -62 0
10 11 59 60 0
-33 -71 0
-34 -72 0
-35 -54 0
6 7 -47 75 0
27 28 63 64 0
-35 -61 0
-36 -62 0
-35 -67 0
-36 -68 0
35 36 71 72 0
-35 -71 0
-36 -72 0
39 40 65 66 0
-37 -53 0
14 42 43 -69 0
-6 51 71 72 0
-39 -55 0
-40 -56 0
35 36 67 68 0
-39 -65 0
-40 -66 0
-39 -69 0
-40 -70 0
49 50 59 60 0
-39 -73 0
-40 -74 0
3 4 -16 53 0
15 16 73 74 0
-17 47 48 75 0
-41 -62 0
14 57 58 -69 0
3 4 -36 54 0
17 18 63 64 0
-42 -61 0
-43 -62 0
1 2 59 60 0
-42 -65 0
-43 -66 0
-19 41 61 62 0
-42 -67 0
-43 -68 0
-4 15 16 53 0
-44 -63 0
-45 -64 0
15 16 35 36 0
-1 6 7 51 0
6 7 -17 75 0
1 2 51 -71 0
-46 -58 0
27 28 59 60 0
1 2 -6 51 0
-46 -60 0
-47 -55 0
-48 -56 0
21 22 -25 52 0
5 -39 69 70 0
-48 -75 0
-49 -59 0
-50 -60 0
17 18 61 62 0
-49 -73 0
-50 -74 0
42 43 67 68 0
-21 25 26 52 0
-51 -72 0
15 16 59 60 0
-52 -56 0
